AME : levi30_29
COMMENT : 30: 40x18 -city problem (levikoppenhol)
TYPE : TSP
DIMENSION : 30
EDGE_WEIGHT_TYPE : EUC_2D
NODE_COORD_SECTION
1 17 15
2 17 11
3 16 18
4 17 15
5 18 22
6 13 13
7 3 30
8 2 38
9 0 3
10 8 18
11 7 9
12 11 17
13 7 1
14 4 4
15 7 30
16 10 21
17 14 9
18 10 18
19 0 27
20 4 24
21 15 17
22 10 2
23 11 20
24 9 31
25 10 5
26 16 20
27 1 30
28 12 22
29 11 33
30 1 3
EOF